p cnf 60 0
c TYPE 2 CLAUSES:
1 -61 0
-1 61 0
c TYPE 4 CLAUSES:
-61 -61 121 0
-61 -62 121 0
-61 -63 121 0
-61 -64 121 0
-61 -66 121 0
-61 -67 121 0
-61 -68 121 0
-61 -69 121 0
-61 -71 121 0
-61 -72 121 0
-61 -73 121 0
-61 -74 121 0
-61 -76 121 0
-61 -77 121 0
-61 -78 121 0
-61 -79 121 0
c TYPE 2 CLAUSES:
2 -62 0
-2 62 0
c TYPE 4 CLAUSES:
-62 -61 122 0
-62 -62 122 0
-62 -63 122 0
-62 -64 122 0
-62 -66 122 0
-62 -67 122 0
-62 -68 122 0
-62 -69 122 0
-62 -71 122 0
-62 -72 122 0
-62 -73 122 0
-62 -74 122 0
-62 -76 122 0
-62 -77 122 0
-62 -78 122 0
-62 -79 122 0
c TYPE 1 CLAUSES:
c rules for 3:
-3 -8 -33 -34 0
34 3 0
34 8 0
34 33 0
33 3 0
33 8 0
8 3 0
c TYPE 2 CLAUSES:
3 -63 0
-3 63 0
c TYPE 4 CLAUSES:
-63 -61 123 0
-63 -62 123 0
-63 -63 123 0
-63 -64 123 0
-63 -66 123 0
-63 -67 123 0
-63 -68 123 0
-63 -69 123 0
-63 -71 123 0
-63 -72 123 0
-63 -73 123 0
-63 -74 123 0
-63 -76 123 0
-63 -77 123 0
-63 -78 123 0
-63 -79 123 0
c TYPE 1 CLAUSES:
c rules for 2:
-4 -9 -34 0
-4 -9 -35 0
35 34 9 0
35 34 4 0
-4 -34 -35 0
35 9 4 0
34 9 4 0
-9 -34 -35 0
4 35 34 0
c TYPE 2 CLAUSES:
4 -64 0
-4 64 0
c TYPE 4 CLAUSES:
-64 -61 124 0
-64 -62 124 0
-64 -63 124 0
-64 -64 124 0
-64 -66 124 0
-64 -67 124 0
-64 -68 124 0
-64 -69 124 0
-64 -71 124 0
-64 -72 124 0
-64 -73 124 0
-64 -74 124 0
-64 -76 124 0
-64 -77 124 0
-64 -78 124 0
-64 -79 124 0
c TYPE 2 CLAUSES:
5 -65 0
-5 65 0
c TYPE 4 CLAUSES:
-65 -61 125 0
-65 -62 125 0
-65 -63 125 0
-65 -64 125 0
-65 -66 125 0
-65 -67 125 0
-65 -68 125 0
-65 -69 125 0
-65 -71 125 0
-65 -72 125 0
-65 -73 125 0
-65 -74 125 0
-65 -76 125 0
-65 -77 125 0
-65 -78 125 0
-65 -79 125 0
c TYPE 1 CLAUSES:
c rules for 2:
-6 -11 -37 0
-6 -11 -38 0
38 37 11 0
38 37 6 0
-6 -37 -38 0
38 11 6 0
37 11 6 0
-11 -37 -38 0
6 38 37 0
c TYPE 2 CLAUSES:
37 -66 0
-37 66 0
c TYPE 4 CLAUSES:
-66 -61 126 0
-66 -62 126 0
-66 -63 126 0
-66 -64 126 0
-66 -66 126 0
-66 -67 126 0
-66 -68 126 0
-66 -69 126 0
-66 -71 126 0
-66 -72 126 0
-66 -73 126 0
-66 -74 126 0
-66 -76 126 0
-66 -77 126 0
-66 -78 126 0
-66 -79 126 0
c TYPE 1 CLAUSES:
c rules for 2:
-7 -12 -38 0
-7 -12 -39 0
39 38 12 0
39 38 7 0
-7 -38 -39 0
39 12 7 0
38 12 7 0
-12 -38 -39 0
7 39 38 0
c TYPE 2 CLAUSES:
-67 -7 -39 -12 -38 0
-67 -7 -39 -12 62 0
-67 -7 -39 66 -38 0
-67 -7 -39 66 62 0
-67 -7 72 -12 -38 0
-67 -7 72 -12 62 0
-67 -7 72 -66 -38 0
-67 -7 72 -66 62 0
-67 7 -39 -12 -38 0
-67 7 -39 -12 62 0
-67 7 -39 66 -38 0
-67 7 -39 66 62 0
-67 7 72 -12 -38 0
-67 7 72 -12 62 0
-67 7 72 66 -38 0
-67 7 72 66 62 0
 67 7 -7 0
 67 39 -72 0
 67 12 -66 0
 67 38 -62 0
c TYPE 4 CLAUSES:
-67 -61 127 0
-67 -62 127 0
-67 -63 127 0
-67 -64 127 0
-67 -66 127 0
-67 -67 127 0
-67 -68 127 0
-67 -69 127 0
-67 -71 127 0
-67 -72 127 0
-67 -73 127 0
-67 -74 127 0
-67 -76 127 0
-67 -77 127 0
-67 -78 127 0
-67 -79 127 0
c TYPE 1 CLAUSES:
c rules for 2:
-8 -13 -39 0
-8 -13 -40 0
40 39 13 0
40 39 8 0
-8 -39 -40 0
40 13 8 0
39 13 8 0
-13 -39 -40 0
8 40 39 0
c TYPE 2 CLAUSES:
-68 -8 -40 -13 -39 0
-68 -8 -40 -13 63 0
-68 -8 -40 67 -39 0
-68 -8 -40 67 63 0
-68 -8 73 -13 -39 0
-68 -8 73 -13 63 0
-68 -8 73 -67 -39 0
-68 -8 73 -67 63 0
-68 8 -40 -13 -39 0
-68 8 -40 -13 63 0
-68 8 -40 67 -39 0
-68 8 -40 67 63 0
-68 8 73 -13 -39 0
-68 8 73 -13 63 0
-68 8 73 67 -39 0
-68 8 73 67 63 0
 68 8 -8 0
 68 40 -73 0
 68 13 -67 0
 68 39 -63 0
c TYPE 4 CLAUSES:
-68 -61 128 0
-68 -62 128 0
-68 -63 128 0
-68 -64 128 0
-68 -66 128 0
-68 -67 128 0
-68 -68 128 0
-68 -69 128 0
-68 -71 128 0
-68 -72 128 0
-68 -73 128 0
-68 -74 128 0
-68 -76 128 0
-68 -77 128 0
-68 -78 128 0
-68 -79 128 0
c TYPE 2 CLAUSES:
-69 -9 -41 -14 -40 0
-69 -9 -41 -14 64 0
-69 -9 -41 68 -40 0
-69 -9 -41 68 64 0
-69 -9 74 -14 -40 0
-69 -9 74 -14 64 0
-69 -9 74 -68 -40 0
-69 -9 74 -68 64 0
-69 9 -41 -14 -40 0
-69 9 -41 -14 64 0
-69 9 -41 68 -40 0
-69 9 -41 68 64 0
-69 9 74 -14 -40 0
-69 9 74 -14 64 0
-69 9 74 68 -40 0
-69 9 74 68 64 0
 69 9 -9 0
 69 41 -74 0
 69 14 -68 0
 69 40 -64 0
c TYPE 4 CLAUSES:
-69 -61 129 0
-69 -62 129 0
-69 -63 129 0
-69 -64 129 0
-69 -66 129 0
-69 -67 129 0
-69 -68 129 0
-69 -69 129 0
-69 -71 129 0
-69 -72 129 0
-69 -73 129 0
-69 -74 129 0
-69 -76 129 0
-69 -77 129 0
-69 -78 129 0
-69 -79 129 0
c TYPE 1 CLAUSES:
c rules for 3:
-10 -15 -41 -42 0
42 10 0
42 15 0
42 41 0
41 10 0
41 15 0
15 10 0
c TYPE 2 CLAUSES:
42 -70 0
-42 70 0
c TYPE 4 CLAUSES:
-70 -61 130 0
-70 -62 130 0
-70 -63 130 0
-70 -64 130 0
-70 -66 130 0
-70 -67 130 0
-70 -68 130 0
-70 -69 130 0
-70 -71 130 0
-70 -72 130 0
-70 -73 130 0
-70 -74 130 0
-70 -76 130 0
-70 -77 130 0
-70 -78 130 0
-70 -79 130 0
c TYPE 1 CLAUSES:
c rules for 0:
-11 0
-44 0
-16 0
-43 0
c TYPE 2 CLAUSES:
43 -71 0
-43 71 0
c TYPE 4 CLAUSES:
-71 -61 131 0
-71 -62 131 0
-71 -63 131 0
-71 -64 131 0
-71 -66 131 0
-71 -67 131 0
-71 -68 131 0
-71 -69 131 0
-71 -71 131 0
-71 -72 131 0
-71 -73 131 0
-71 -74 131 0
-71 -76 131 0
-71 -77 131 0
-71 -78 131 0
-71 -79 131 0
c TYPE 2 CLAUSES:
-72 -12 -45 -17 -44 0
-72 -12 -45 -17 67 0
-72 -12 -45 71 -44 0
-72 -12 -45 71 67 0
-72 -12 77 -17 -44 0
-72 -12 77 -17 67 0
-72 -12 77 -71 -44 0
-72 -12 77 -71 67 0
-72 12 -45 -17 -44 0
-72 12 -45 -17 67 0
-72 12 -45 71 -44 0
-72 12 -45 71 67 0
-72 12 77 -17 -44 0
-72 12 77 -17 67 0
-72 12 77 71 -44 0
-72 12 77 71 67 0
 72 12 -12 0
 72 45 -77 0
 72 17 -71 0
 72 44 -67 0
c TYPE 4 CLAUSES:
-72 -61 132 0
-72 -62 132 0
-72 -63 132 0
-72 -64 132 0
-72 -66 132 0
-72 -67 132 0
-72 -68 132 0
-72 -69 132 0
-72 -71 132 0
-72 -72 132 0
-72 -73 132 0
-72 -74 132 0
-72 -76 132 0
-72 -77 132 0
-72 -78 132 0
-72 -79 132 0
c TYPE 2 CLAUSES:
-73 -13 -46 -18 -45 0
-73 -13 -46 -18 68 0
-73 -13 -46 72 -45 0
-73 -13 -46 72 68 0
-73 -13 78 -18 -45 0
-73 -13 78 -18 68 0
-73 -13 78 -72 -45 0
-73 -13 78 -72 68 0
-73 13 -46 -18 -45 0
-73 13 -46 -18 68 0
-73 13 -46 72 -45 0
-73 13 -46 72 68 0
-73 13 78 -18 -45 0
-73 13 78 -18 68 0
-73 13 78 72 -45 0
-73 13 78 72 68 0
 73 13 -13 0
 73 46 -78 0
 73 18 -72 0
 73 45 -68 0
c TYPE 4 CLAUSES:
-73 -61 133 0
-73 -62 133 0
-73 -63 133 0
-73 -64 133 0
-73 -66 133 0
-73 -67 133 0
-73 -68 133 0
-73 -69 133 0
-73 -71 133 0
-73 -72 133 0
-73 -73 133 0
-73 -74 133 0
-73 -76 133 0
-73 -77 133 0
-73 -78 133 0
-73 -79 133 0
c TYPE 1 CLAUSES:
c rules for 1:
14 47 19 46 0
-14 -47 0
-14 -19 0
-14 -46 0
-47 -19 0
-47 -46 0
-19 -46 0
c TYPE 2 CLAUSES:
-74 -14 -47 -19 -46 0
-74 -14 -47 -19 69 0
-74 -14 -47 73 -46 0
-74 -14 -47 73 69 0
-74 -14 79 -19 -46 0
-74 -14 79 -19 69 0
-74 -14 79 -73 -46 0
-74 -14 79 -73 69 0
-74 14 -47 -19 -46 0
-74 14 -47 -19 69 0
-74 14 -47 73 -46 0
-74 14 -47 73 69 0
-74 14 79 -19 -46 0
-74 14 79 -19 69 0
-74 14 79 73 -46 0
-74 14 79 73 69 0
 74 14 -14 0
 74 47 -79 0
 74 19 -73 0
 74 46 -69 0
c TYPE 4 CLAUSES:
-74 -61 134 0
-74 -62 134 0
-74 -63 134 0
-74 -64 134 0
-74 -66 134 0
-74 -67 134 0
-74 -68 134 0
-74 -69 134 0
-74 -71 134 0
-74 -72 134 0
-74 -73 134 0
-74 -74 134 0
-74 -76 134 0
-74 -77 134 0
-74 -78 134 0
-74 -79 134 0
c TYPE 2 CLAUSES:
48 -75 0
-48 75 0
c TYPE 4 CLAUSES:
-75 -61 135 0
-75 -62 135 0
-75 -63 135 0
-75 -64 135 0
-75 -66 135 0
-75 -67 135 0
-75 -68 135 0
-75 -69 135 0
-75 -71 135 0
-75 -72 135 0
-75 -73 135 0
-75 -74 135 0
-75 -76 135 0
-75 -77 135 0
-75 -78 135 0
-75 -79 135 0
c TYPE 1 CLAUSES:
c rules for 2:
-16 -21 -49 0
-16 -21 -50 0
50 49 21 0
50 49 16 0
-16 -49 -50 0
50 21 16 0
49 21 16 0
-21 -49 -50 0
16 50 49 0
c TYPE 2 CLAUSES:
49 -76 0
-49 76 0
c TYPE 4 CLAUSES:
-76 -61 136 0
-76 -62 136 0
-76 -63 136 0
-76 -64 136 0
-76 -66 136 0
-76 -67 136 0
-76 -68 136 0
-76 -69 136 0
-76 -71 136 0
-76 -72 136 0
-76 -73 136 0
-76 -74 136 0
-76 -76 136 0
-76 -77 136 0
-76 -78 136 0
-76 -79 136 0
c TYPE 2 CLAUSES:
-77 -17 -51 -22 -50 0
-77 -17 -51 -22 72 0
-77 -17 -51 76 -50 0
-77 -17 -51 76 72 0
-77 -17 82 -22 -50 0
-77 -17 82 -22 72 0
-77 -17 82 -76 -50 0
-77 -17 82 -76 72 0
-77 17 -51 -22 -50 0
-77 17 -51 -22 72 0
-77 17 -51 76 -50 0
-77 17 -51 76 72 0
-77 17 82 -22 -50 0
-77 17 82 -22 72 0
-77 17 82 76 -50 0
-77 17 82 76 72 0
 77 17 -17 0
 77 51 -82 0
 77 22 -76 0
 77 50 -72 0
c TYPE 4 CLAUSES:
-77 -61 137 0
-77 -62 137 0
-77 -63 137 0
-77 -64 137 0
-77 -66 137 0
-77 -67 137 0
-77 -68 137 0
-77 -69 137 0
-77 -71 137 0
-77 -72 137 0
-77 -73 137 0
-77 -74 137 0
-77 -76 137 0
-77 -77 137 0
-77 -78 137 0
-77 -79 137 0
c TYPE 1 CLAUSES:
c rules for 2:
-18 -23 -51 0
-18 -23 -52 0
52 51 23 0
52 51 18 0
-18 -51 -52 0
52 23 18 0
51 23 18 0
-23 -51 -52 0
18 52 51 0
c TYPE 2 CLAUSES:
-78 -18 -52 -23 -51 0
-78 -18 -52 -23 73 0
-78 -18 -52 77 -51 0
-78 -18 -52 77 73 0
-78 -18 83 -23 -51 0
-78 -18 83 -23 73 0
-78 -18 83 -77 -51 0
-78 -18 83 -77 73 0
-78 18 -52 -23 -51 0
-78 18 -52 -23 73 0
-78 18 -52 77 -51 0
-78 18 -52 77 73 0
-78 18 83 -23 -51 0
-78 18 83 -23 73 0
-78 18 83 77 -51 0
-78 18 83 77 73 0
 78 18 -18 0
 78 52 -83 0
 78 23 -77 0
 78 51 -73 0
c TYPE 4 CLAUSES:
-78 -61 138 0
-78 -62 138 0
-78 -63 138 0
-78 -64 138 0
-78 -66 138 0
-78 -67 138 0
-78 -68 138 0
-78 -69 138 0
-78 -71 138 0
-78 -72 138 0
-78 -73 138 0
-78 -74 138 0
-78 -76 138 0
-78 -77 138 0
-78 -78 138 0
-78 -79 138 0
c TYPE 2 CLAUSES:
-79 -19 -53 -24 -52 0
-79 -19 -53 -24 74 0
-79 -19 -53 78 -52 0
-79 -19 -53 78 74 0
-79 -19 84 -24 -52 0
-79 -19 84 -24 74 0
-79 -19 84 -78 -52 0
-79 -19 84 -78 74 0
-79 19 -53 -24 -52 0
-79 19 -53 -24 74 0
-79 19 -53 78 -52 0
-79 19 -53 78 74 0
-79 19 84 -24 -52 0
-79 19 84 -24 74 0
-79 19 84 78 -52 0
-79 19 84 78 74 0
 79 19 -19 0
 79 53 -84 0
 79 24 -78 0
 79 52 -74 0
c TYPE 4 CLAUSES:
-79 -61 139 0
-79 -62 139 0
-79 -63 139 0
-79 -64 139 0
-79 -66 139 0
-79 -67 139 0
-79 -68 139 0
-79 -69 139 0
-79 -71 139 0
-79 -72 139 0
-79 -73 139 0
-79 -74 139 0
-79 -76 139 0
-79 -77 139 0
-79 -78 139 0
-79 -79 139 0
c TYPE 2 CLAUSES:
54 -80 0
-54 80 0
c TYPE 4 CLAUSES:
-80 -61 140 0
-80 -62 140 0
-80 -63 140 0
-80 -64 140 0
-80 -66 140 0
-80 -67 140 0
-80 -68 140 0
-80 -69 140 0
-80 -71 140 0
-80 -72 140 0
-80 -73 140 0
-80 -74 140 0
-80 -76 140 0
-80 -77 140 0
-80 -78 140 0
-80 -79 140 0
c TYPE 2 CLAUSES:
26 -81 0
-26 81 0
c TYPE 4 CLAUSES:
-81 -61 141 0
-81 -62 141 0
-81 -63 141 0
-81 -64 141 0
-81 -66 141 0
-81 -67 141 0
-81 -68 141 0
-81 -69 141 0
-81 -71 141 0
-81 -72 141 0
-81 -73 141 0
-81 -74 141 0
-81 -76 141 0
-81 -77 141 0
-81 -78 141 0
-81 -79 141 0
c TYPE 1 CLAUSES:
c rules for 2:
-22 -27 -56 0
-22 -27 -57 0
57 56 27 0
57 56 22 0
-22 -56 -57 0
57 27 22 0
56 27 22 0
-27 -56 -57 0
22 57 56 0
c TYPE 2 CLAUSES:
27 -82 0
-27 82 0
c TYPE 4 CLAUSES:
-82 -61 142 0
-82 -62 142 0
-82 -63 142 0
-82 -64 142 0
-82 -66 142 0
-82 -67 142 0
-82 -68 142 0
-82 -69 142 0
-82 -71 142 0
-82 -72 142 0
-82 -73 142 0
-82 -74 142 0
-82 -76 142 0
-82 -77 142 0
-82 -78 142 0
-82 -79 142 0
c TYPE 1 CLAUSES:
c rules for 3:
-23 -28 -57 -58 0
58 23 0
58 28 0
58 57 0
57 23 0
57 28 0
28 23 0
c TYPE 2 CLAUSES:
28 -83 0
-28 83 0
c TYPE 4 CLAUSES:
-83 -61 143 0
-83 -62 143 0
-83 -63 143 0
-83 -64 143 0
-83 -66 143 0
-83 -67 143 0
-83 -68 143 0
-83 -69 143 0
-83 -71 143 0
-83 -72 143 0
-83 -73 143 0
-83 -74 143 0
-83 -76 143 0
-83 -77 143 0
-83 -78 143 0
-83 -79 143 0
c TYPE 1 CLAUSES:
c rules for 2:
-24 -29 -58 0
-24 -29 -59 0
59 58 29 0
59 58 24 0
-24 -58 -59 0
59 29 24 0
58 29 24 0
-29 -58 -59 0
24 59 58 0
c TYPE 2 CLAUSES:
29 -84 0
-29 84 0
c TYPE 4 CLAUSES:
-84 -61 144 0
-84 -62 144 0
-84 -63 144 0
-84 -64 144 0
-84 -66 144 0
-84 -67 144 0
-84 -68 144 0
-84 -69 144 0
-84 -71 144 0
-84 -72 144 0
-84 -73 144 0
-84 -74 144 0
-84 -76 144 0
-84 -77 144 0
-84 -78 144 0
-84 -79 144 0
c TYPE 1 CLAUSES:
c rules for 3:
-25 -30 -59 -60 0
60 25 0
60 30 0
60 59 0
59 25 0
59 30 0
30 25 0
c TYPE 2 CLAUSES:
30 -85 0
-30 85 0
c TYPE 4 CLAUSES:
-85 -61 145 0
-85 -62 145 0
-85 -63 145 0
-85 -64 145 0
-85 -66 145 0
-85 -67 145 0
-85 -68 145 0
-85 -69 145 0
-85 -71 145 0
-85 -72 145 0
-85 -73 145 0
-85 -74 145 0
-85 -76 145 0
-85 -77 145 0
-85 -78 145 0
-85 -79 145 0
